# IMA bootcamp HW 1

# number of points you're looking at
param numpoints:= 20;

# x, y coords of point
param : xCoord yCoord :=
1 4.53 0.18
2 0.63 4.25
3 4.57 4.67
4 3.16 3.39
5 0.49 3.79
6 1.39 3.72
7 2.73 1.96
8 4.79 3.28
9 4.82 0.86
10 0.79 3.53
11 4.85 0.16
12 4.79 1.38
13 2.43 0.23
14 4 0.49
15 0.71 4.12
16 2.11 3.47
17 4.58 1.59
18 3.96 4.75
19 4.8 0.17
20 3.28 2.19;